

******************************************************************************
This program contains Ipopt, a library for large-scale nonlinear optimization.
 Ipopt is released as open source code under the Eclipse Public License (EPL).
         For more information visit https://github.com/coin-or/Ipopt
******************************************************************************

This is Ipopt version 3.14.11, running with linear solver MUMPS 5.5.1.

Number of nonzeros in equality constraint Jacobian...:        0
Number of nonzeros in inequality constraint Jacobian.:        4
Number of nonzeros in Lagrangian Hessian.............:        3

Total number of variables............................:        2
                     variables with only lower bounds:        0
                variables with lower and upper bounds:        2
                     variables with only upper bounds:        0
Total number of equality constraints.................:        0
Total number of inequality constraints...............:        2
        inequality constraints with only lower bounds:        2
   inequality constraints with lower and upper bounds:        0
        inequality constraints with only upper bounds:        0

iter    objective    inf_pr   inf_du lg(mu)  ||d||  lg(rg) alpha_du alpha_pr  ls
   0  4.0408040e+00 2.10e+01 2.07e+00  -1.0 0.00e+00    -  0.00e+00 0.00e+00   0
   1  4.5337088e+00 2.07e+01 2.01e+00  -1.0 1.03e+01    -  5.37e-02 2.40e-02h  1
   2  2.5051930e-01 2.41e+01 2.48e+00  -1.0 2.44e+01    -  2.01e-02 1.00e+00F  1
   3  1.6712402e+00 2.19e+01 1.95e+00  -1.0 1.77e+01    -  1.05e-02 7.72e-02h  2
   4  1.0738132e+00 2.30e+01 3.59e+00  -1.0 1.11e+01    -  8.76e-01 6.93e-02H  1
   5  3.0197409e+00 2.14e+01 4.87e+00  -1.0 1.97e+01    -  4.44e-03 6.64e-02h  2
   6  1.3795763e+01 3.17e+00 1.37e+01  -1.0 7.71e+00    -  3.07e-01 5.00e-01h  2
   7  4.3013176e+00 7.70e+00 9.93e+00  -1.0 1.14e+02    -  2.15e-01 2.31e-01f  2
   8  4.1610335e+00 7.50e+00 8.51e+00  -1.0 7.08e+01    -  1.00e+00 1.32e-01h  1
   9  6.1072359e+00 0.00e+00 2.45e+00  -1.0 5.74e+01    -  1.00e+00 1.00e+00h  1
iter    objective    inf_pr   inf_du lg(mu)  ||d||  lg(rg) alpha_du alpha_pr  ls
  10  5.1001582e+00 3.27e-01 5.92e-01  -1.0 4.55e+01    -  1.00e+00 1.00e+00h  1
  11  5.0143932e+00 0.00e+00 3.98e-02  -1.0 5.93e+01    -  1.00e+00 1.00e+00h  1
  12  5.1049022e+00 0.00e+00 8.10e-05  -1.0 1.24e+01    -  1.00e+00 1.00e+00h  1
  13  5.0004550e+00 0.00e+00 2.77e-03  -2.5 9.77e+00    -  1.00e+00 9.89e-01h  1
  14  5.0028349e+00 0.00e+00 3.56e-07  -2.5 6.14e-02    -  1.00e+00 1.00e+00h  1
  15  5.0001477e+00 0.00e+00 1.70e-06  -3.8 2.60e-01    -  1.00e+00 1.00e+00f  1
  16  5.0000018e+00 0.00e+00 5.30e-09  -5.7 1.43e-02    -  1.00e+00 1.00e+00h  1
  17  5.0000000e+00 0.00e+00 8.08e-13  -8.6 1.79e-04    -  1.00e+00 1.00e+00h  1

Number of Iterations....: 17

                                   (scaled)                 (unscaled)
Objective...............:   4.9999999525046093e+00    4.9999999525046093e+00
Dual infeasibility......:   8.0793347971619466e-13    8.0793347971619466e-13
Constraint violation....:   0.0000000000000000e+00    0.0000000000000000e+00
Variable bound violation:   0.0000000000000000e+00    0.0000000000000000e+00
Complementarity.........:   2.5073577405256524e-09    2.5073577405256524e-09
Overall NLP error.......:   2.5073577405256524e-09    2.5073577405256524e-09


Number of objective function evaluations             = 27
Number of objective gradient evaluations             = 18
Number of equality constraint evaluations            = 0
Number of inequality constraint evaluations          = 27
Number of equality constraint Jacobian evaluations   = 0
Number of inequality constraint Jacobian evaluations = 18
Number of Lagrangian Hessian evaluations             = 17
Total seconds in IPOPT                               = 0.013

EXIT: Optimal Solution Found.
 
Ipopt 3.14.11: Optimal Solution Found
